BEGIN IONS
PEPMASS=313.191
CHARGE=1+
MSLEVEL=2
SOURCE_INSTRUMENT=LC-ESI-qTof
FILENAME=10_hydroxygeissoschizol.mgf
SEQ=*..*
IONMODE=Positive
ORGANISM=MIADB
NAME=10-hydroxygeissoschizol M+H
PI=Mehdi Beniddir
DATACOLLECTOR=Alexander Fox Ramos
SMILES=OC1=CC=C(NC2=C3CCN4C2CC(CCO)/C(C4)=C\C)C3=C1
INCHI=InChI=1S/C19H24N2O2/c1-2-12-11-21-7-5-15-16-10-14(23)3-4-17(16)20-19(15)18(21)9-13(12)6-8-22/h2-4,10,13,18,20,22-23H,5-9,11H2,1H3/b12-2-
INCHIAUX=N/A
PUBMED=N/A
SUBMITUSER=mwang87
LIBRARYQUALITY=3
SPECTRUMID=CCMSLIB00004679916
SCANS=1
PRECURSOR_MZ=313.191
SKELETONS=Corynanthean
ID=0
101.037399 350.540405 
102.044174 383.274902 
103.053146 4610.291992 
104.051949 2260.537109 
105.067871 9594.084961 
105.16201 163.538193 
106.065247 124.527496 
106.068115 1981.384033 
107.052734 676.076416 
107.072884 594.594727 
107.083488 1218.05896 
108.079796 2921.672119 
109.087296 313.888 
109.094734 686.419922 
110.095299 2784.2771 
111.079704 3456.947998 
112.082085 398.307404 
113.036812 142.897705 
114.044159 325.898804 
115.052872 35265.628906 
115.150139 375.499115 
116.054886 7872.39502 
116.151253 156.158203 
117.057556 22507.949219 
117.154556 247.482697 
118.062065 4701.005859 
119.065781 346.533997 
119.08271 1657.685059 
120.042992 262.748108 
120.079994 1026.654053 
121.085052 260.680206 
121.091919 265.28241 
122.058495 383.958191 
122.094421 1602.885986 
123.082687 126.914703 
123.0923 300.185211 
124.109268 442.907806 
126.043274 195.5233 
127.052727 4778.022949 
128.055298 2044.387939 
129.066025 1341.411987 
130.063797 7268.300781 
130.167007 141.047699 
131.066483 4683.545898 
131.074066 474.048492 
132.078827 16383.259766 
132.183273 256.456909 
133.052582 3035.447021 
133.065048 3006.350098 
133.072128 1269.689941 
134.060959 1357.89502 
134.07312 160.228195 
134.089844 329.517792 
135.083542 204.854202 
135.099518 125.283203 
136.109818 1430.692017 
137.097275 357.217804 
138.091965 161.759995 
139.052444 497.605591 
140.049225 1112.087036 
140.10527 414.338715 
141.061234 1606.198975 
142.063553 7078.641113 
142.170776 143.333405 
143.070618 8242.230469 
143.179367 168.469406 
144.045197 169.482895 
144.055893 1371.499023 
144.064209 1634.692017 
144.07132 151.270599 
145.057602 1671.411011 
145.062256 326.446106 
145.092331 117.571198 
146.058746 11083.160156 
146.168671 274.053589 
147.063705 2820.376953 
148.072891 1102.85498 
148.107803 558.299927 
149.093887 162.440903 
151.052231 286.295288 
152.057373 642.852112 
152.104874 413.1875 
153.065613 522.274597 
154.063812 3929.677979 
154.120682 8895.204102 
155.069992 1630.911011 
155.124191 1262.623047 
156.077576 1245.605957 
156.136841 351.341797 
157.069092 194.809799 
157.08136 223.171204 
158.059814 1621.755981 
159.066254 11804.650391 
159.180664 290.461487 
160.073929 116484.5 
160.187683 117.387703 
161.077362 16334.990234 
161.192825 218.014496 
162.081436 1332.854004 
164.05954 127.674599 
165.068375 786.295593 
166.065552 1275.001953 
166.121124 3035.938965 
167.071762 2736.60791 
167.123352 423.001007 
168.07785 1630.703979 
168.13562 177.776703 
169.08049 394.647888 
170.059235 3211.468994 
171.065903 2163.729004 
172.073669 4267.228027 
173.078888 1399.120972 
174.089417 3079.060059 
175.089676 960.57782 
176.060593 132.825806 
176.088043 134.236893 
177.063553 230.256805 
178.069504 502.862213 
179.071976 321.089813 
179.078873 137.378403 
180.07901 1199.621948 
181.083817 711.959412 
182.06189 357.650909 
182.088562 660.43103 
183.066467 3979.738037 
184.073135 4251.446777 
185.076889 1950.290039 
186.089233 2341.062988 
187.090332 618.03418 
188.104965 380.130493 
189.068115 242.558899 
189.106125 118.414597 
190.066895 218.148895 
191.072861 910.445618 
192.078262 1138.077026 
193.085831 737.696106 
194.093307 862.385315 
195.086182 293.558289 
196.074066 4745.394043 
197.079987 2514.575928 
198.087982 2365.814941 
199.088501 1402.422974 
200.099228 459.062103 
201.10173 237.659393 
203.072617 243.7668 
204.078934 1640.708008 
205.085678 764.889587 
206.093185 645.296814 
207.064758 479.822113 
207.07077 411.172913 
207.093887 327.412903 
208.076401 1193.265991 
209.08197 2207.696045 
210.088852 3760.51001 
211.09462 1425.218994 
212.10408 1416.639038 
213.108505 443.235199 
216.078018 260.546204 
217.086594 485.549194 
218.093048 403.536011 
219.096924 192.592804 
220.074966 2553.416992 
221.08136 2577.164062 
222.089294 3586.579102 
223.096069 2197.968994 
224.104416 2731.985107 
225.110626 1118.093018 
226.119568 772.057129 
227.119125 304.449005 
228.120239 131.508896 
233.082504 1228.53894 
234.089203 1929.162964 
235.095566 1321.385986 
236.105087 3849.575928 
237.110489 2013.676025 
238.12001 1255.170044 
239.12323 548.208984 
240.13588 638.863281 
241.133972 569.944275 
242.134811 285.954712 
246.090866 137.759003 
247.098083 256.691711 
248.104721 1065.880005 
249.112457 976.631775 
250.119766 1605.813965 
251.127167 1697.765991 
252.135574 2080.156982 
253.138718 644.945312 
254.146545 271.05011 
262.119019 198.865295 
263.126526 295.439209 
264.136017 305.956512 
265.141541 226.787003 
266.150818 554.836609 
267.139099 264.874207 
268.141144 168.590302 
270.148651 503.395599 
271.149719 156.0746 
278.151459 306.56781 
282.146118 144.463898 
284.162506 1023.994019 
285.165985 343.400085 
296.163239 1259.776001 
297.166382 406.7005 
313.188812 1495.354004 
314.193512 446.014893 
315.199585 132.400604 
END IONS

BEGIN IONS
PEPMASS=467.28
CHARGE=1+
MSLEVEL=2
SOURCE_INSTRUMENT=LC-ESI-qTof
FILENAME=10_hydroxyusambarine.mgf
SEQ=*..*
IONMODE=Positive
ORGANISM=MIADB
NAME=10-hydroxyusambarine M+H
PI=Mehdi Beniddir
DATACOLLECTOR=Alexander Fox Ramos
SMILES=[H][C@@]1(N(C)CCC2=C1NC3=C2C=CC=C3)C[C@@]4([H])C[C@]5([H])N(CCC6=C5NC7=C6C=C(O)C=C7)C[C@@H]4C=C
INCHI=InChI=1S/C30H34N4O/c1-3-18-17-34-13-11-23-24-16-20(35)8-9-26(24)32-30(23)28(34)15-19(18)14-27-29-22(10-12-33(27)2)21-6-4-5-7-25(21)31-29/h3-9,16,18-19,27-28,31-32,35H,1,10-15,17H2,2H3/t18-,19-,27+,28-/m0/s1
INCHIAUX=N/A
PUBMED=N/A
SUBMITUSER=mwang87
LIBRARYQUALITY=3
SPECTRUMID=CCMSLIB00004679917
SCANS=1
PRECURSOR_MZ=467.28
SKELETONS=Corynanthean-Tryptamine
ID=1
101.034874 30.904619 
102.041771 21.103371 
103.052765 229.670898 
103.05674 120.831703 
103.111198 21.762409 
103.146149 16.60478 
103.292244 14.4944 
104.047554 68.659607 
104.05294 48.369209 
104.17646 28.944441 
105.027634 25.5634 
105.068954 669.804016 
105.122643 22.43903 
105.133293 13.71686 
105.159821 23.075821 
106.058525 38.165749 
106.064056 426.727814 
106.07724 43.408951 
106.115631 14.37528 
106.155029 34.22847 
106.670959 14.60119 
107.060982 111.178703 
107.07058 68.135147 
107.077629 15.38776 
107.12262 22.332291 
108.040756 56.942329 
108.04705 16.19879 
108.079079 739.990906 
108.083504 538.032715 
108.151733 45.477928 
108.164436 15.2352 
108.174103 50.419689 
108.201233 34.860008 
108.324318 14.10565 
108.431335 15.27208 
109.08094 166.170502 
109.108528 13.87119 
109.176514 13.37447 
110.055359 26.99564 
110.094818 112.175598 
110.125023 16.125891 
113.037949 15.00163 
115.052971 2101.134033 
115.062729 23.918779 
115.13089 40.512409 
115.149788 102.664001 
115.177963 45.463879 
115.210014 26.137791 
115.250328 14.09784 
115.315994 16.239771 
115.338509 13.72397 
115.489281 25.212681 
115.783043 15.17926 
116.043419 39.522942 
116.054504 421.144287 
116.061729 91.782303 
116.154343 22.376249 
116.166229 24.2899 
116.21801 14.7567 
116.239212 23.857 
116.269302 21.86067 
117.060516 1824.090942 
117.066994 153.116806 
117.155769 94.775681 
117.184631 34.78656 
117.194489 25.992069 
117.257576 23.526211 
117.285553 13.9166 
117.339935 13.33035 
117.406242 15.43761 
117.437386 18.555849 
117.477028 17.94593 
117.522545 16.575729 
118.058754 18.390579 
118.065727 702.91748 
118.119507 45.032101 
118.166367 32.279049 
118.214912 15.65131 
118.261894 13.92639 
119.065186 70.553703 
119.071602 109.116096 
119.083206 67.747177 
119.164261 14.00251 
119.264816 17.836161 
120.047226 44.43681 
120.078964 827.686096 
120.143356 14.58208 
120.165726 15.84445 
120.176735 41.237019 
120.224838 15.4767 
120.524803 19.35866 
120.882545 20.68368 
121.075378 15.43991 
121.083412 224.1194 
121.089272 69.434624 
121.111954 27.351021 
121.158447 13.87586 
122.059174 871.882019 
122.092316 1015.593018 
122.099602 28.981779 
122.140755 25.92449 
122.151512 51.034119 
122.160637 17.555559 
122.192024 63.199581 
122.22406 32.38773 
122.246086 14.32853 
122.279549 17.362961 
122.33606 16.701559 
122.402489 24.146469 
122.48185 14.09526 
122.528534 23.89646 
122.553467 13.3791 
123.060883 123.914398 
123.067627 71.169273 
123.091789 33.26149 
123.098518 23.88896 
123.120697 15.53538 
123.35482 13.3918 
124.107132 41.379688 
126.037956 19.591841 
126.053352 30.04784 
127.052109 825.792114 
127.10862 32.627701 
127.118645 24.47274 
127.152809 21.407301 
127.184708 21.57905 
128.057251 814.062622 
128.12085 14.44572 
128.129578 17.12969 
128.151321 29.34626 
128.179321 13.31983 
128.316757 14.96341 
128.356796 16.63983 
129.067474 1199.21106 
129.073242 100.205803 
129.139664 15.47407 
129.17157 54.34631 
129.201767 39.827942 
129.241165 17.264799 
129.290054 16.740021 
129.355301 14.44722 
129.396912 26.211571 
129.540085 14.19235 
130.064255 3097.948975 
130.101242 33.00116 
130.143768 15.12469 
130.164871 158.618896 
130.191132 15.84437 
130.198532 63.88483 
130.262985 28.29287 
130.283081 15.74949 
130.299805 21.415171 
130.326675 14.29607 
130.339264 15.61042 
130.370819 19.34454 
130.429794 16.121441 
130.476837 13.97531 
130.490433 14.0576 
130.639618 20.730709 
131.069641 1440.287964 
131.136917 26.519449 
131.157272 14.45655 
131.171997 50.456951 
131.18512 15.39096 
131.202347 42.065769 
131.242462 16.56171 
131.258575 18.753651 
131.306107 17.9946 
131.383652 27.72682 
131.425552 20.701349 
131.524918 17.76791 
131.5578 18.04578 
131.589462 13.86875 
131.636765 14.8205 
131.718674 28.306749 
131.90625 14.02444 
132.079895 2447.354004 
132.160141 41.780159 
132.180069 78.603073 
132.211548 40.289612 
132.220047 21.689421 
132.238693 15.70486 
132.259628 17.366631 
132.267044 25.85845 
132.296875 24.773251 
132.321884 16.4606 
132.344223 23.088511 
132.378723 17.85903 
132.424408 14.15572 
132.434647 13.726 
132.470505 21.229389 
132.532669 13.31583 
132.599579 17.074039 
132.641922 13.43127 
132.673706 22.649269 
132.858292 14.2928 
133.069855 405.87851 
133.076462 190.747192 
133.091003 37.473339 
133.147491 39.766392 
133.170746 20.15262 
133.181381 15.7227 
133.212997 22.76605 
133.62294 22.14016 
134.058548 357.292389 
134.070053 62.959469 
134.093567 1194.296021 
134.158463 54.655029 
134.19873 89.152763 
134.230835 29.31311 
134.241119 13.60357 
134.263702 25.448071 
134.341843 15.59076 
134.393387 18.130619 
134.625504 14.34329 
134.715103 15.0196 
135.052002 23.10577 
135.061646 41.05452 
135.068298 42.111561 
135.093094 151.003204 
135.103043 161.601105 
135.120224 22.24074 
135.163452 30.35778 
135.230972 15.15797 
135.311066 13.59133 
135.327866 17.74918 
135.844971 15.6626 
136.079285 40.364811 
136.108643 51.726929 
136.117783 17.31468 
136.152359 14.25737 
136.953979 15.43519 
137.112671 21.105801 
138.122238 55.490452 
138.163559 14.17984 
138.707184 15.49051 
139.047516 38.876331 
140.045181 72.572777 
141.065704 149.599197 
141.076752 34.125118 
141.298828 18.516991 
142.063492 750.121094 
142.130554 20.75119 
142.172318 25.788321 
142.201614 13.62361 
142.34903 17.444651 
143.071396 2298.74292 
143.079025 14.91753 
143.12706 44.669449 
143.157013 48.2976 
143.175278 95.122467 
143.208389 40.537979 
143.219528 35.676788 
143.250305 37.968391 
143.293518 42.24678 
143.302719 16.669991 
143.329025 15.52604 
143.366882 15.12384 
143.4879 43.2981 
143.53241 13.63232 
143.60173 18.528111 
143.660904 13.87738 
144.079468 7916.845215 
144.18631 437.7565 
144.218079 177.431198 
144.226959 82.417267 
144.251465 18.44676 
144.267258 64.386078 
144.283417 50.56543 
144.298798 28.123739 
144.31015 24.30197 
144.323929 13.75 
144.3358 76.519768 
144.350449 16.13294 
144.368393 48.896271 
144.384552 13.95807 
144.420471 33.904171 
144.437744 38.635849 
144.45932 32.8116 
144.477188 35.17041 
144.498215 20.02107 
144.519897 31.229679 
144.536377 25.93145 
144.554031 20.514339 
144.564789 22.641529 
144.589584 33.505058 
144.606293 15.79735 
144.625778 39.639751 
144.659027 21.146339 
144.696228 26.194071 
144.739487 21.50778 
144.762741 16.248039 
144.792114 18.44503 
144.815842 17.53281 
144.823593 19.65741 
144.898804 21.517281 
144.918991 18.64992 
144.964157 16.27459 
145.08252 1791.751953 
145.144012 14.16063 
145.15712 14.81407 
145.166428 29.25198 
145.179932 54.75346 
145.192169 37.68877 
145.22403 49.56813 
145.237976 18.20363 
145.251846 20.999559 
145.272141 13.58649 
145.325653 35.782879 
145.34082 15.34071 
145.394943 16.03009 
145.41127 22.60873 
145.454697 16.349211 
145.6035 20.896601 
145.688919 20.63962 
145.729797 14.52584 
145.754501 23.69437 
145.911011 14.59969 
146.061798 1364.723022 
146.075333 142.631805 
146.090179 118.016403 
146.124405 48.708061 
146.17009 112.821999 
146.194031 36.053051 
146.210846 16.32428 
146.233704 18.832741 
146.285049 18.780569 
146.31485 30.69466 
146.339828 24.574619 
146.353149 19.164551 
146.405945 14.75128 
146.479324 16.01709 
146.552429 13.69584 
146.612381 21.441509 
146.68045 15.43985 
146.763229 14.3966 
146.821198 16.024429 
147.061981 237.136703 
147.068466 340.7836 
147.092422 82.762001 
147.126846 17.53912 
147.140686 27.561661 
147.168488 21.04867 
147.206635 32.810162 
147.255325 19.328711 
147.281937 17.62261 
147.479523 19.445129 
147.650314 18.115351 
147.756119 13.91172 
147.900681 18.96977 
148.037811 20.628019 
148.070435 48.516041 
148.076981 18.876129 
148.085602 17.953091 
148.111267 88.269463 
148.1306 17.700991 
148.217316 17.1117 
148.835739 13.42168 
149.065231 20.10848 
149.077942 15.4504 
149.110245 18.798161 
149.16008 13.81023 
151.061646 26.696541 
152.057343 35.83831 
152.065598 54.750881 
153.059601 40.753521 
153.0681 131.452194 
153.138046 16.949751 
154.064499 612.011597 
154.149902 21.749821 
154.180923 34.48135 
154.248703 13.49129 
154.350525 16.99432 
155.071991 583.496887 
155.126678 23.651369 
155.153229 14.56137 
155.169128 16.644739 
155.18306 17.909109 
155.210052 15.3169 
156.08049 2806.020996 
156.141373 15.48148 
156.165085 30.876631 
156.193741 101.204201 
156.221161 19.303169 
156.230164 47.41119 
156.277084 26.533609 
156.288498 13.31389 
156.316528 23.743311 
156.345474 13.64251 
156.388626 14.29589 
156.408432 13.81774 
156.464203 18.109421 
156.621124 22.27404 
156.71228 16.27816 
157.082993 823.104126 
157.136047 25.41185 
157.152847 14.28193 
157.167053 15.1683 
157.192627 23.4965 
157.205292 13.32026 
157.224701 18.03019 
157.534546 14.3642 
157.95314 15.84496 
158.049713 22.92576 
158.058426 173.175598 
158.094696 2373.504883 
158.156693 25.25127 
158.166611 51.964661 
158.197113 24.88555 
158.208206 114.396004 
158.239273 44.1768 
158.257187 30.54224 
158.293777 26.84535 
158.332336 27.112591 
158.377151 15.53192 
158.444412 23.467569 
158.506592 18.646851 
158.534058 14.51584 
158.642166 17.05784 
158.673538 17.43944 
158.689743 16.79438 
158.71315 17.78019 
158.794174 13.49574 
159.071091 1015.890015 
159.082153 205.142899 
159.098663 139.811295 
159.178162 99.982773 
159.212631 39.66531 
159.246414 24.38294 
159.256302 18.216881 
159.39537 29.3402 
159.451996 20.918329 
159.497696 15.31776 
159.538681 13.73968 
159.586227 17.638651 
159.662186 28.625589 
159.67627 13.96348 
159.756897 13.36309 
159.882339 16.248409 
160.07518 13294.150391 
160.18663 723.293274 
160.222336 285.251099 
160.23114 23.472219 
160.240372 39.39201 
160.251312 61.62513 
160.262466 38.80843 
160.281784 20.54324 
160.292419 131.860504 
160.305725 31.987471 
160.339432 51.039299 
160.349228 48.884548 
160.365326 47.154881 
160.383957 42.301701 
160.39769 63.615459 
160.409348 46.57066 
160.444687 54.279591 
160.465164 36.791672 
160.478439 74.765137 
160.507492 57.853359 
160.524445 29.061119 
160.555634 30.130051 
160.572678 40.054489 
160.582886 29.651569 
160.610397 40.40052 
160.645294 29.72294 
160.667084 42.69075 
160.681259 26.77367 
160.70546 21.95302 
160.730545 21.525949 
160.753296 39.641071 
160.766876 22.296961 
160.784683 32.742451 
160.832687 43.600609 
160.843765 13.65395 
160.873001 18.5861 
160.900162 18.993311 
160.910675 34.685589 
160.944855 29.524561 
160.9785 15.35648 
160.989487 15.507 
161.006927 26.527781 
161.019089 17.898861 
161.078003 2536.103027 
161.149506 26.44544 
161.16095 31.94511 
161.181427 20.623369 
161.193024 33.845242 
161.205078 28.102039 
161.227859 47.17342 
161.25296 37.419651 
161.274582 42.344681 
161.292816 32.991772 
161.347595 26.562771 
161.384186 25.722231 
161.393356 20.57843 
161.431458 20.13883 
161.459076 22.750389 
161.518555 20.771799 
161.535477 20.803579 
161.562576 19.483629 
161.577209 21.367929 
161.596527 24.84585 
161.618515 21.18861 
161.64978 15.28524 
161.70903 16.902901 
161.719055 15.07669 
161.758087 27.99608 
161.816345 16.98106 
161.841064 15.8686 
161.862381 30.165461 
161.896301 30.36388 
161.922226 28.57066 
161.953751 25.1691 
161.9702 16.21438 
162.042252 13.50665 
162.077728 30.300541 
162.087173 344.450806 
162.104248 33.981441 
162.154114 28.83532 
162.16925 17.012239 
162.198212 31.74011 
162.434067 15.80526 
162.465149 26.19384 
162.51178 20.62808 
162.625259 15.97695 
162.716782 13.35887 
162.888397 13.54564 
162.989166 21.43343 
163.049927 14.87888 
163.09111 111.491501 
163.309296 17.64959 
163.374374 13.72862 
163.805878 15.34092 
164.036423 21.532829 
164.046326 15.68914 
164.534409 13.90378 
164.893341 21.697849 
165.06694 56.11306 
165.174911 16.94722 
165.776825 13.92489 
166.062302 104.404404 
166.06987 78.322998 
167.059937 34.440182 
167.072189 960.747681 
167.15448 18.779039 
167.16449 28.09581 
167.216919 19.48148 
167.227554 20.817419 
167.25592 14.16533 
167.284164 20.21701 
167.379074 15.73218 
167.440842 18.223261 
167.68544 15.09385 
168.079727 1272.014038 
168.144943 25.4109 
168.163513 21.13542 
168.193954 65.912537 
168.223816 14.08006 
168.235123 21.93116 
168.292938 24.786011 
168.326797 13.3373 
168.341415 16.565001 
168.41684 13.69536 
168.437378 23.76757 
168.942337 16.072651 
169.072876 23.12467 
169.083832 872.5979 
169.104218 28.68928 
169.150879 18.09206 
169.206116 38.900021 
169.937637 13.32361 
170.061096 378.484985 
170.077652 181.990097 
170.093246 1015.085999 
170.176285 47.707169 
170.206375 42.66441 
170.218689 39.534248 
170.258026 13.64663 
170.284561 15.00341 
170.326157 18.74696 
170.366776 23.40839 
170.380447 14.95833 
170.420914 14.66864 
170.432251 20.71962 
170.478897 21.55958 
170.519745 22.11108 
170.552429 14.65563 
170.563416 14.06369 
170.642883 20.931511 
170.761871 20.350491 
170.823761 17.072081 
170.988052 28.402069 
171.066513 385.418091 
171.075699 177.440399 
171.096848 197.548401 
171.142944 14.95784 
171.165146 32.750351 
171.184723 34.798592 
171.221573 34.548759 
171.26268 21.40448 
171.300949 25.39138 
171.356262 14.09472 
171.640549 15.77828 
171.669159 14.46974 
171.681686 14.4512 
171.729797 19.73687 
172.076874 1554.635986 
172.092438 79.987083 
172.105057 62.015388 
172.160843 14.68789 
172.188126 83.673462 
172.228394 41.571011 
172.239227 19.101259 
172.254211 21.16036 
172.294327 15.30249 
172.310562 23.60733 
172.355728 34.201191 
172.405258 16.58614 
172.47966 25.29067 
172.516953 20.51321 
172.583496 15.75916 
172.598969 16.25474 
172.729126 14.45768 
173.018433 14.60518 
173.081863 795.980713 
173.13681 34.201221 
173.17186 21.945511 
173.185379 16.14344 
173.194336 21.4461 
173.231445 21.68322 
173.274628 24.13245 
173.36026 16.71763 
173.402603 29.30434 
173.43219 13.3661 
173.459091 19.802191 
173.5681 16.76354 
173.742508 20.58427 
173.807327 13.43761 
173.941727 14.94198 
174.090042 1751.793945 
174.178635 44.214439 
174.207748 66.198883 
174.236954 19.974461 
174.246155 28.853279 
174.282639 24.139589 
174.297546 14.12765 
174.332214 14.00298 
174.435196 18.72637 
174.510452 16.73831 
174.537354 16.4795 
174.561493 16.39217 
174.753433 15.29778 
174.804749 14.40978 
174.818008 16.061119 
174.924286 15.1894 
175.046722 16.390209 
175.077118 35.278831 
175.090622 103.155998 
175.097809 177.660004 
175.164841 27.80571 
175.219757 20.55312 
175.253693 26.55032 
175.276184 13.74512 
175.985687 14.93625 
176.093613 48.755539 
177.066635 31.580299 
178.071823 89.410744 
179.058655 40.283001 
179.073929 49.873589 
179.082428 75.917831 
179.097229 18.75848 
180.080078 1175.006958 
180.169968 58.66399 
180.188766 13.37231 
180.202011 17.72756 
180.233749 18.71693 
180.30571 16.11676 
180.354691 14.32941 
180.765137 14.80175 
180.838257 14.92695 
180.954407 15.41841 
181.07869 76.570282 
181.087585 602.398071 
181.15863 13.79573 
181.175186 28.737301 
181.190735 34.744282 
181.272339 13.4948 
181.40448 20.096951 
182.09288 970.03418 
182.126633 39.408901 
182.15593 26.605009 
182.175919 16.599621 
182.215866 45.52095 
182.249939 24.531509 
182.41185 35.678699 
182.593185 14.65177 
182.805038 14.55629 
182.976501 13.59562 
183.054123 48.133339 
183.06665 280.315308 
183.080963 386.18689 
183.094284 96.065063 
183.123779 64.975731 
183.141769 52.726429 
183.157059 33.96682 
183.184204 13.61806 
183.191483 32.906551 
183.21788 34.918049 
183.233963 14.80822 
183.252396 17.955589 
183.286209 18.10347 
183.478775 19.56057 
183.521423 16.952841 
183.587402 23.047819 
183.679733 18.03256 
184.068436 90.404228 
184.077408 1093.595947 
184.094315 74.960892 
184.10849 28.79068 
184.184998 45.821339 
184.197647 14.30934 
184.237076 16.631701 
184.267929 38.96114 
184.408142 14.01536 
184.496445 23.898041 
184.566818 15.5267 
184.585098 16.990601 
184.611526 13.56261 
184.712326 15.58486 
184.736923 13.68122 
184.970078 17.84832 
185.07309 589.504822 
185.08606 509.927887 
185.102341 392.663788 
185.166092 19.92104 
185.19075 118.022102 
185.216446 25.486111 
185.228333 30.623501 
185.25853 19.61932 
185.291565 28.690229 
185.336395 16.31814 
185.376831 33.094669 
185.403 13.79845 
185.432526 15.71358 
185.450165 14.93251 
185.544647 17.57163 
185.574463 14.80863 
185.708725 20.468809 
185.785233 16.24618 
185.833969 21.50766 
186.08963 1400.678955 
186.142532 28.777781 
186.160828 44.216228 
186.21051 21.91099 
186.238495 14.18841 
186.24826 19.78396 
186.293457 20.81459 
186.308838 19.137091 
186.348114 17.57262 
186.37645 18.460991 
186.419662 17.886749 
186.452026 29.38299 
186.559982 15.59529 
186.585068 14.36075 
186.779541 18.08029 
187.014435 14.12605 
187.090195 664.859314 
187.160385 25.81461 
187.218933 18.757021 
187.268402 28.30154 
187.577347 17.735901 
187.680939 22.067591 
187.751617 14.06826 
187.770386 15.43305 
188.069107 16.33333 
188.090897 48.790218 
188.101791 164.6978 
188.165085 14.82998 
188.179413 18.380131 
189.10527 47.901459 
189.11731 19.722191 
189.138184 15.9624 
189.244553 15.54163 
189.461639 14.88889 
189.501404 16.50926 
189.584 13.41031 
190.073273 75.949623 
190.114059 30.838619 
191.073181 167.317596 
192.070755 21.45681 
192.084 216.673203 
192.124405 24.12896 
192.211472 16.75539 
192.454758 20.228781 
193.087585 566.298096 
193.151718 34.685131 
193.171844 26.448 
193.191132 21.54563 
193.213455 20.83721 
193.773788 14.06651 
194.049973 17.692329 
194.094482 701.213623 
194.107925 19.422939 
194.169022 16.445539 
194.191223 29.29142 
194.218506 32.553169 
194.261002 17.72052 
194.27713 15.84386 
194.323532 15.4112 
194.632202 23.30825 
195.056152 25.070801 
195.069138 31.251101 
195.091324 170.327606 
195.102371 228.060303 
195.149734 16.8787 
195.177536 13.66007 
195.216721 21.04043 
195.293671 13.93425 
196.07637 489.288086 
196.090988 511.710114 
196.108047 238.095795 
196.154678 16.001261 
196.17659 29.41918 
196.197662 49.14006 
196.235397 60.124119 
196.27179 13.6481 
196.287277 22.38467 
196.326706 15.06591 
196.40654 15.9734 
196.420151 16.197189 
196.509033 17.9105 
196.543564 18.87887 
196.671539 23.12055 
196.703003 20.98576 
197.078918 879.94873 
197.09082 125.4076 
197.107391 18.703699 
197.161911 18.48757 
197.182312 17.95245 
197.199066 29.24649 
197.219589 19.378441 
197.235596 29.538719 
197.256454 15.94354 
197.276062 24.923149 
197.359924 17.15032 
197.370804 17.199961 
197.488052 16.021931 
198.032883 16.44323 
198.08371 1399.21106 
198.098999 36.582779 
198.121964 138.959702 
198.182632 19.949301 
198.201538 77.964561 
198.250748 41.04303 
198.312958 15.12107 
198.335114 13.99363 
198.346313 15.33789 
198.380371 16.778971 
198.486801 35.62558 
198.528503 15.47678 
198.565399 19.654739 
198.702332 13.73297 
198.847122 27.43334 
199.087265 1026.85498 
199.115112 48.022449 
199.18132 18.732809 
199.209122 56.787048 
199.225616 18.851419 
199.246429 41.61422 
199.284988 14.71155 
199.310043 28.13159 
199.473221 24.783689 
199.620178 31.79557 
199.892593 26.2465 
199.988617 17.991051 
200.090729 530.260986 
200.101212 112.32 
200.132828 41.23801 
200.148865 19.37055 
200.1651 19.14052 
200.218475 40.09996 
200.291992 13.4917 
200.309143 14.21349 
200.43306 16.986719 
201.022308 13.8566 
201.101166 808.999084 
201.130203 72.348679 
201.174515 17.057791 
201.195221 29.515421 
201.224487 15.95195 
201.242737 22.09046 
201.258133 17.53442 
201.287964 18.87772 
201.356339 14.51492 
201.662994 19.09409 
202.10463 209.489594 
202.128601 22.53108 
202.166077 15.6731 
202.186951 15.52017 
202.814453 15.64311 
203.080093 112.507599 
203.146271 18.669001 
203.94516 16.861259 
203.964279 17.692169 
204.03717 16.724001 
204.067337 30.869841 
204.078278 241.898193 
204.103607 13.48834 
204.132874 23.580151 
204.664719 14.22736 
205.085815 329.033905 
205.163391 27.67738 
205.20195 19.876949 
205.656143 15.5535 
205.883118 19.173901 
206.092453 673.253479 
206.171875 23.345869 
206.18988 15.58769 
206.215347 17.267241 
206.229431 14.72476 
206.276703 16.559059 
206.364792 13.33931 
206.392838 15.74974 
207.099686 612.451294 
207.188904 16.894581 
207.225006 30.712351 
207.28775 15.54523 
207.41629 13.41829 
207.639984 20.20447 
208.063889 61.313839 
208.109375 1038.936035 
208.178299 36.627579 
208.193558 19.409719 
208.217865 21.82707 
208.235565 33.13699 
208.280563 22.112471 
208.29512 24.22448 
208.327316 14.07854 
208.351807 14.1149 
208.528427 18.512899 
208.541473 14.50513 
208.55513 14.35162 
208.610153 35.36797 
208.782089 13.30115 
209.087112 342.283997 
209.109375 369.375092 
209.149323 20.916451 
209.180801 19.14134 
209.208282 28.981661 
209.24855 13.78571 
209.26767 18.593809 
209.287354 21.95109 
209.39859 29.80475 
209.529861 13.75392 
209.619431 14.45411 
209.652512 13.65671 
209.67868 15.36206 
209.781174 19.485149 
210.084412 312.398712 
210.099838 355.919098 
210.122208 222.188797 
210.135406 23.137819 
210.217972 33.6423 
210.254318 26.476629 
210.277969 15.63754 
210.349106 13.76502 
210.367157 22.110371 
210.392776 28.519661 
210.47374 15.19132 
210.494461 14.10388 
210.635422 14.12768 
210.90004 15.08134 
211.089142 335.289703 
211.1008 103.383499 
211.12355 729.918884 
211.187225 13.90128 
211.227478 35.275139 
211.25528 65.20224 
211.27832 15.6352 
211.332901 15.01034 
211.349518 19.091949 
211.375198 13.79383 
211.395523 20.743271 
211.424362 20.267309 
211.516235 20.85878 
211.626755 13.72698 
211.742584 14.73635 
212.09671 437.035889 
212.123489 218.684402 
212.142075 24.819441 
212.174194 23.65064 
212.186447 15.26005 
212.22081 29.45113 
212.257996 28.494381 
212.28566 20.51054 
212.320541 13.52996 
212.426987 17.720301 
212.604218 14.02997 
213.1008 710.246277 
213.162552 18.00893 
213.177856 32.76487 
213.198547 53.909061 
213.22728 21.35475 
213.239426 17.886921 
213.285675 18.508261 
213.34642 13.29628 
213.426422 13.84033 
213.457001 21.438511 
213.523193 15.45299 
214.107513 245.760406 
214.123428 62.263969 
214.172668 17.69449 
214.20871 19.90324 
214.340622 13.51035 
214.411789 14.37609 
214.630783 16.532829 
215.072403 13.45448 
215.111252 79.960114 
215.119293 326.174011 
215.160492 28.28336 
215.231979 18.221411 
215.324753 14.99038 
215.407516 17.344379 
215.4422 15.28469 
216.059998 16.96789 
216.092941 36.494209 
216.118393 174.158401 
216.14743 38.078381 
216.16597 14.37088 
216.248383 23.55291 
216.498413 13.36384 
216.584351 13.39006 
217.067215 18.3617 
217.087128 218.737701 
217.161758 28.084721 
217.210266 13.54722 
217.250702 16.063749 
218.093475 448.637299 
218.119751 34.59737 
218.16069 19.087299 
218.172806 23.829109 
218.221161 15.76557 
218.261337 16.3463 
218.920074 13.8161 
219.090225 64.057083 
219.1017 195.651093 
219.137619 13.34503 
219.152863 19.800779 
219.178238 16.305149 
219.924805 19.140301 
220.085281 53.116322 
220.10321 467.15921 
220.116623 63.08894 
220.156143 27.37009 
220.223206 23.197639 
220.274673 17.474569 
220.393158 28.192631 
220.657654 17.841049 
221.070908 154.189194 
221.104019 549.205627 
221.185745 13.47351 
221.211929 38.147911 
221.252441 20.03046 
221.290466 26.416 
221.327377 21.435591 
221.364944 13.5711 
222.084244 489.452698 
222.109253 180.945908 
222.122314 573.291687 
222.15773 19.044291 
222.204468 23.675541 
222.220673 20.730379 
222.255569 49.847191 
222.294342 30.21534 
222.329819 30.577181 
222.358322 17.657921 
222.370361 15.30587 
222.416672 13.81467 
222.517929 17.237141 
222.598236 20.74781 
222.686768 25.68091 
222.874588 13.34001 
222.964584 14.55047 
223.087982 2027.959961 
223.124451 198.101501 
223.17952 25.64599 
223.211426 125.341301 
223.257858 77.942917 
223.279999 22.006479 
223.291321 13.29876 
223.310608 19.400101 
223.331055 18.289631 
223.363037 15.03285 
223.398163 13.50174 
223.428528 37.52306 
223.493027 22.916929 
223.52948 35.26342 
223.577698 15.33416 
223.595276 25.975229 
223.611984 16.25592 
223.632126 15.66903 
223.695892 20.96876 
223.745697 15.7913 
223.798325 18.502781 
223.843277 32.92971 
223.862274 14.13784 
223.978409 23.33481 
224.095535 1178.935059 
224.134583 220.758499 
224.16507 41.890259 
224.225082 46.422771 
224.258224 41.52869 
224.27803 24.107281 
224.358002 24.51545 
224.408737 14.13214 
224.429062 20.61532 
224.481552 21.574249 
224.5578 22.03384 
224.579422 14.96416 
224.594925 15.90643 
224.660889 21.44725 
224.726807 18.304001 
224.749023 21.01078 
224.90596 26.433649 
224.964798 13.84975 
225.052185 15.15333 
225.102707 762.320923 
225.134628 88.11808 
225.190887 15.51486 
225.206863 49.923019 
225.234909 30.93787 
225.26944 36.862259 
225.360794 17.906969 
225.385986 18.43865 
225.44606 17.959459 
225.481659 13.92158 
225.494827 15.55682 
225.531998 15.51385 
225.642609 15.31517 
225.779419 17.553841 
225.840271 14.48435 
226.10817 172.341797 
226.121902 19.283951 
226.136917 34.111259 
226.153503 90.886307 
226.16806 28.64757 
226.212479 13.82827 
226.255737 13.93333 
226.294128 21.971861 
226.38797 14.8342 
226.881241 14.51974 
227.110794 83.854912 
227.129837 50.726662 
227.157455 41.60128 
227.170074 28.96954 
227.206894 20.27647 
227.427414 13.40687 
228.084351 28.41081 
228.127716 15.34785 
228.522659 14.47951 
229.134567 22.15661 
229.698578 16.45068 
230.064713 19.320049 
230.083252 42.365582 
230.098892 68.496758 
230.131027 36.8144 
230.208572 16.331369 
231.090668 93.829819 
231.102219 63.810699 
231.139511 21.699459 
231.196625 14.19042 
232.103622 170.375107 
232.122162 33.733002 
232.150665 15.35803 
232.189163 21.969749 
233.0849 183.185699 
233.102325 250.108902 
233.155365 28.59359 
233.189926 14.90214 
233.224945 21.134501 
233.272324 18.751011 
233.956192 17.34931 
234.083466 125.924301 
234.099869 178.671707 
234.126404 398.664215 
234.167953 15.46839 
234.199768 26.31139 
234.221451 13.5113 
234.241013 23.60112 
234.273239 37.14946 
234.322556 14.15601 
235.070251 17.532619 
235.089157 471.86969 
235.105362 259.503906 
235.124619 102.587097 
235.174362 23.94276 
235.216858 40.7766 
235.232513 15.62993 
235.273605 17.30961 
235.292603 22.71559 
235.357635 17.217331 
235.485687 17.11515 
235.529724 14.89678 
235.674774 13.29522 
235.784546 16.12347 
235.849594 13.94292 
235.980042 23.90259 
236.099152 494.859497 
236.118134 188.508896 
236.139297 357.930511 
236.16507 31.115419 
236.236053 51.914169 
236.278549 29.045931 
236.344177 21.938 
236.379486 26.475479 
236.491028 14.42029 
236.523819 14.7095 
237.002533 34.399811 
237.101486 4764.973145 
237.136566 69.375 
237.153152 47.415668 
237.203201 107.609001 
237.218414 55.791809 
237.236084 222.801697 
237.281555 126.741096 
237.300446 18.0497 
237.314804 19.853571 
237.335876 22.57535 
237.348846 45.852421 
237.399475 50.133209 
237.432831 31.135731 
237.451721 18.824459 
237.469452 15.1952 
237.49855 30.85474 
237.512497 17.970421 
237.533615 30.049061 
237.560791 22.509041 
237.59642 19.22747 
237.617004 14.67227 
237.633118 30.031931 
237.669769 21.0851 
237.684631 23.608999 
237.735931 19.649521 
237.770706 19.74264 
237.791 19.215269 
237.831207 19.98815 
237.898315 36.10289 
237.94368 17.2703 
238.111084 2515.947998 
238.124161 107.0868 
238.184982 32.39571 
238.203293 23.28125 
238.218735 39.86451 
238.248489 102.945396 
238.273193 58.265518 
238.288223 19.716459 
238.306213 40.140591 
238.32193 26.9118 
238.37561 25.36006 
238.396118 18.84057 
238.428589 55.664719 
238.482239 19.78738 
238.497284 30.81728 
238.556458 30.725 
238.568451 20.016319 
238.598282 17.988211 
238.617371 18.54501 
238.646515 34.878109 
238.715469 13.88314 
238.760834 14.52443 
238.780426 18.79228 
238.807358 20.491249 
238.840363 15.22196 
238.919922 20.028099 
238.964371 16.62616 
239.007278 15.83701 
239.049423 19.69018 
239.117706 973.52533 
239.174286 62.897751 
239.200882 35.71674 
239.240372 43.43745 
239.264084 13.89825 
239.29213 14.94352 
239.323013 26.506769 
239.338562 13.43991 
239.356827 15.95436 
239.392151 24.75705 
239.44574 21.40151 
239.468796 16.498011 
239.482941 19.079029 
239.524292 14.60379 
239.56041 17.67942 
239.627777 25.12841 
239.650803 20.457211 
239.733063 14.15695 
239.825348 13.76604 
239.848785 14.42625 
239.916336 17.75654 
240.120621 247.430405 
240.131027 47.019291 
240.154236 50.16988 
240.175079 60.298649 
240.201965 26.4293 
240.2612 18.52228 
240.297379 14.83548 
240.318497 15.96866 
240.577484 19.86784 
240.618881 23.11199 
240.677948 13.96417 
241.125183 162.071899 
241.138306 19.465611 
241.181732 19.781111 
241.273407 20.293301 
241.54129 15.94662 
242.083572 16.369499 
242.135468 31.224831 
242.146683 24.68981 
242.203308 14.47172 
243.093994 15.41978 
243.141312 49.931438 
243.21907 14.29363 
243.544174 15.96769 
244.108337 58.977982 
244.144867 13.51015 
245.108505 40.458858 
246.078552 68.186653 
246.09288 29.75667 
246.125244 172.628403 
246.142303 17.00931 
246.270691 14.92739 
247.095367 105.6259 
247.113251 153.854095 
247.126343 50.573231 
247.165176 22.90185 
247.174179 20.95079 
247.2836 15.53183 
247.351273 14.1472 
247.557098 13.91804 
248.101715 179.587402 
248.115631 37.720879 
248.135269 302.172211 
248.184875 31.7869 
248.228043 13.99123 
248.238922 21.18574 
248.284393 23.871281 
248.32457 16.498131 
248.363342 16.185249 
248.46434 17.007971 
248.652466 19.20756 
249.091873 16.33604 
249.107315 777.499573 
249.131516 46.44463 
249.147964 45.609539 
249.194138 14.78637 
249.220596 42.588791 
249.24144 30.872299 
249.278595 29.576099 
249.320053 28.931 
249.359863 15.25288 
249.404694 34.247421 
249.443115 25.246731 
249.513123 19.83288 
249.568115 13.30456 
249.616974 22.61376 
249.693817 21.150999 
249.866348 16.4904 
250.116776 1244.436035 
250.131348 65.588188 
250.228012 33.186298 
250.25856 56.797401 
250.292557 19.632271 
250.323425 18.95183 
250.346863 24.94956 
250.362732 13.86698 
250.38382 15.26396 
250.450745 14.69346 
250.553543 15.01191 
250.610199 16.08395 
250.656952 16.590879 
250.707596 28.56205 
251.021255 14.96915 
251.118439 1336.296021 
251.135361 312.040405 
251.233261 53.198341 
251.25206 25.373529 
251.262772 25.28968 
251.304077 37.50222 
251.321747 19.255039 
251.335556 15.95113 
251.364014 19.88797 
251.404602 26.71933 
251.438049 21.160179 
251.462326 15.21016 
251.58606 16.913059 
251.651932 16.391319 
251.692459 24.17979 
251.898804 19.314791 
252.124664 1171.751953 
252.158829 33.108891 
252.204147 32.1572 
252.235031 19.49955 
252.25972 51.307388 
252.27092 16.243919 
252.297073 31.563351 
252.30809 26.234909 
252.38623 13.81356 
252.422974 20.30065 
252.447144 17.25499 
252.486908 14.66002 
252.560104 23.60047 
252.858459 14.20099 
252.940079 20.172041 
253.130112 274.428894 
253.144348 41.395672 
253.17659 32.071159 
253.456345 13.32948 
253.483658 14.06451 
253.522308 19.12067 
253.620544 17.578699 
253.921204 13.64231 
254.090088 25.83708 
254.12883 65.411758 
254.143478 24.77594 
254.186111 26.67971 
254.234726 16.25058 
254.874878 31.341709 
255.106613 21.1493 
255.165237 14.39346 
256.096588 59.827621 
256.814117 16.63143 
257.108521 52.075748 
257.19223 15.94664 
258.089478 52.613659 
258.121552 30.718309 
258.142456 13.96485 
259.092346 85.226448 
259.116364 47.42889 
259.13736 27.695181 
260.089844 22.252081 
260.112244 97.721764 
260.13443 45.249439 
261.107269 255.265503 
261.140472 75.04406 
261.190765 20.991859 
261.576141 13.82863 
262.113281 237.252304 
262.14093 91.207893 
262.220825 23.67943 
262.265747 15.17189 
262.833496 13.30754 
263.117676 1105.974976 
263.143646 161.448898 
263.198517 45.774311 
263.229706 40.55397 
263.261658 41.815029 
263.295013 14.33633 
263.315369 23.24242 
263.341797 13.93234 
263.367065 22.14254 
263.413727 21.600439 
263.490356 18.398279 
263.571838 25.89263 
263.760223 15.56318 
263.802948 13.4659 
264.130646 712.255493 
264.208771 22.326799 
264.22641 58.243999 
264.259338 28.35722 
264.272949 16.175699 
264.324432 16.24799 
264.345673 17.74445 
264.408783 18.681 
264.463562 20.269291 
264.511536 13.85309 
264.535278 13.9328 
264.587952 13.82483 
264.745148 16.00408 
264.784973 20.32448 
264.856201 16.670059 
265.039856 17.002399 
265.134583 1222.828979 
265.165649 1536.595947 
265.258209 53.739861 
265.273499 61.939629 
265.317261 82.484047 
265.35376 49.148998 
265.374512 18.995131 
265.411743 50.190269 
265.440765 31.71397 
265.457703 26.077181 
265.512909 27.080191 
265.541168 14.91698 
265.570984 14.29345 
265.592255 27.79978 
265.634918 29.132311 
265.661255 49.531658 
265.70871 23.43589 
265.759979 21.49017 
265.85257 34.720581 
265.940918 23.56109 
265.963684 15.31773 
265.998413 23.902929 
266.120819 28.524389 
266.136353 466.833801 
266.167114 463.55899 
266.198212 35.456669 
266.209503 15.44643 
266.232758 36.13644 
266.271149 33.689571 
266.312622 44.145279 
266.359619 25.849131 
266.457153 31.58317 
266.493835 19.255091 
266.517548 15.55185 
266.536621 19.30018 
266.599884 17.220831 
266.659454 14.89815 
266.748688 14.08448 
266.806091 19.50473 
266.879822 25.998899 
267.148773 8897.94043 
267.270874 36.847038 
267.289764 321.463898 
267.346466 169.957001 
267.375824 71.737953 
267.396667 14.42944 
267.432709 61.083832 
267.446442 82.221428 
267.489166 58.550419 
267.51236 39.456509 
267.5336 76.741417 
267.58252 26.61014 
267.59671 44.699589 
267.617462 20.358971 
267.630951 32.215599 
267.647705 17.785311 
267.685944 47.142899 
267.716705 27.003851 
267.733429 26.178459 
267.751465 13.35833 
267.776367 42.946072 
267.803131 43.01194 
267.82486 36.509499 
267.871399 32.61869 
267.928314 32.076698 
267.936768 46.552608 
267.971222 23.475731 
267.987061 36.607578 
268.013947 30.03866 
268.030609 37.54459 
268.063416 29.949039 
268.081757 15.99291 
268.134613 22.597219 
268.151978 3191.798096 
268.247772 82.609253 
268.292114 191.040298 
268.339478 66.28595 
268.357208 67.762802 
268.377808 19.202271 
268.401794 49.919701 
268.449158 38.959419 
268.473358 17.11681 
268.497772 25.726391 
268.524231 45.343029 
268.575958 23.446079 
268.590698 35.193298 
268.624786 20.11566 
268.645203 27.4806 
268.709991 17.49386 
268.748657 15.24624 
268.772858 27.463591 
268.794891 16.139759 
268.811127 14.69477 
268.827118 42.401989 
268.855133 22.197941 
268.913635 27.335609 
268.932861 25.598471 
268.988159 20.934669 
269.001099 26.09376 
269.054962 17.74243 
269.097229 14.52268 
269.149719 20.34161 
269.159027 325.839905 
269.238617 22.747499 
269.282745 32.308151 
269.329987 23.60112 
269.420349 26.984039 
269.465302 28.268471 
269.499847 20.300211 
269.55249 16.15053 
269.561615 16.737431 
269.648834 13.29801 
269.708221 21.362419 
269.778961 17.229099 
269.820038 23.554359 
269.89212 18.65661 
270.031219 17.718321 
270.078674 17.75787 
270.119232 13.95989 
270.157196 55.794868 
270.204346 14.91164 
270.248962 18.28491 
270.434814 20.80769 
270.58551 14.60681 
270.600677 16.3468 
270.91449 15.79773 
270.961426 17.790449 
270.987854 13.84335 
271.19577 23.403419 
271.324585 14.04526 
271.545563 16.709249 
271.830658 20.943291 
272.075592 22.225349 
272.082977 18.585501 
272.114471 32.775002 
272.14743 13.61886 
272.400116 13.71049 
272.440125 14.89424 
272.472473 17.43784 
272.55954 14.69789 
273.091492 43.702831 
273.108643 53.616268 
273.148865 16.720711 
273.170532 21.097219 
273.232697 18.934349 
273.292145 21.863041 
273.403687 15.64936 
273.536957 15.61335 
274.115265 93.070351 
274.165924 45.44376 
274.641022 13.92831 
275.10437 48.935841 
275.11969 129.725098 
275.144592 87.754646 
275.184662 21.72283 
275.355499 19.6702 
275.501099 17.154591 
275.727631 13.95986 
276.017151 16.919649 
276.103333 21.51865 
276.124146 64.84539 
276.139862 99.425171 
276.187469 30.703659 
276.234039 15.97673 
276.337341 13.48929 
276.619568 22.07119 
277.133453 497.022095 
277.16806 785.559204 
277.190338 28.46286 
277.2164 23.68391 
277.257965 14.2131 
277.278503 28.615999 
277.305664 40.01255 
277.32373 32.801071 
277.356018 22.270161 
277.380737 27.75897 
277.512573 21.993 
277.584503 15.99175 
277.645599 13.37638 
277.668091 14.10791 
277.724426 27.407379 
277.837738 21.389759 
278.1297 170.665802 
278.145172 13.59115 
278.172455 427.068207 
278.272095 56.986141 
278.324402 17.36417 
278.344147 16.117649 
278.401672 16.83544 
278.48349 14.23111 
278.646332 26.921881 
278.710022 18.585939 
278.776703 15.42585 
279.148865 2531.218018 
279.262054 69.253387 
279.292389 91.635468 
279.333374 27.54192 
279.384247 44.442581 
279.428894 13.5676 
279.485535 43.179611 
279.504639 15.06434 
279.549591 20.745661 
279.574738 21.196159 
279.626038 16.168859 
279.652435 13.56099 
279.671875 24.98315 
279.727081 25.66053 
279.815399 17.62392 
279.848572 22.96249 
279.930817 21.71982 
279.993835 27.392969 
280.061829 19.18873 
280.150635 1011.487 
280.230133 49.832691 
280.29126 70.202568 
280.341461 19.88493 
280.394379 19.989071 
280.411713 14.41581 
280.466339 18.03059 
280.493011 16.01634 
280.568726 17.373461 
280.658844 15.94907 
280.787018 17.920429 
280.835602 17.157961 
280.994659 14.81466 
281.104919 14.36103 
281.16214 458.556396 
281.212219 13.31217 
281.282349 13.74544 
281.312439 17.278521 
281.372009 19.78264 
281.444641 16.61231 
281.48526 20.172079 
281.5289 13.97166 
281.738129 18.75054 
282.16864 174.854706 
282.239075 19.355221 
282.384186 25.53779 
282.541473 18.75211 
282.950073 13.72075 
283.129974 16.94907 
284.088318 21.592569 
284.153839 36.370529 
285.116211 36.887829 
286.100494 76.101028 
287.056946 16.75211 
287.120331 22.67778 
287.140045 32.7313 
287.173676 20.19005 
287.253204 17.283409 
288.105042 50.436279 
288.128754 19.60631 
288.145111 18.044889 
288.212982 19.05143 
289.13031 195.514496 
289.165405 14.89464 
289.959473 15.35128 
290.146637 140.716705 
290.176575 18.975941 
290.223633 14.83279 
290.304382 14.09596 
290.482056 15.19266 
290.505402 23.591801 
291.145569 644.319885 
291.243713 19.279249 
291.30014 31.724701 
291.35257 25.42367 
291.403442 15.68508 
291.501709 19.82021 
291.619415 17.276751 
291.78418 19.923901 
291.88858 17.176371 
292.146393 176.576797 
292.154297 109.871201 
292.294342 19.017941 
292.594269 13.36666 
293.164185 455.228302 
293.257202 16.317591 
293.316925 22.86565 
293.418823 15.80476 
293.447357 14.62 
293.492889 16.87706 
293.762238 13.62547 
294.082794 18.74192 
294.137482 30.14959 
294.166199 371.265198 
294.255524 33.112061 
294.314758 40.226212 
294.376465 15.12435 
294.436737 20.903891 
294.534943 16.721861 
294.591095 14.57581 
295.008392 14.38135 
295.167023 74.502953 
295.203949 13.84843 
295.280914 18.462139 
295.432465 14.30028 
295.71524 19.511339 
296.683502 16.43478 
297.125153 15.13524 
298.127777 32.428242 
299.112 61.80687 
300.120789 38.022701 
300.699921 13.99945 
301.126923 40.96907 
301.144592 16.23307 
301.17157 15.44259 
303.1492 80.757149 
304.141846 43.61026 
304.171478 54.183762 
304.272247 13.38181 
305.164276 106.185303 
305.259674 15.55611 
306.095245 14.99499 
306.15213 31.773809 
306.168365 38.064739 
306.211761 16.432739 
307.166809 59.713509 
307.196503 34.602428 
308.209656 226.861404 
308.37381 13.32151 
308.477509 15.42704 
309.108002 25.44486 
309.202209 30.667839 
309.226624 23.392651 
310.202911 25.126181 
311.103943 25.94903 
311.146454 15.35278 
313.116302 22.987789 
313.680298 14.14508 
314.138184 36.236649 
315.156464 66.772171 
315.191284 17.124701 
316.145844 46.979599 
316.187988 35.86079 
316.258606 17.000759 
317.149811 19.18236 
320.109558 17.549061 
320.16217 20.86125 
320.193359 32.245861 
320.240936 25.445709 
321.218079 28.78837 
321.251923 19.091999 
322.104004 62.101151 
322.125427 19.98048 
322.2229 14.58807 
323.099976 25.88583 
323.118774 43.243061 
324.123566 25.28038 
324.146179 16.112009 
325.086304 23.462761 
325.119873 53.084019 
325.209747 19.652069 
327.149048 30.92593 
329.159485 102.780899 
330.152893 21.85409 
330.17157 34.41235 
332.818146 13.45651 
335.123047 17.716221 
335.149384 16.209431 
336.145996 23.074869 
336.339935 16.725 
337.126282 39.09734 
338.128052 41.408749 
338.161255 15.097 
338.252899 15.1796 
339.137177 28.068171 
339.189423 19.968599 
340.149078 22.20307 
342.152557 22.12755 
343.166229 20.604521 
346.116089 19.941629 
348.11557 33.752491 
349.128021 40.714531 
350.124969 17.918159 
350.151886 31.532619 
351.739349 17.470169 
352.144806 56.896229 
353.175171 16.089661 
354.155579 22.706881 
355.164703 24.173229 
356.161713 20.22817 
359.144073 16.08984 
360.100433 15.82033 
362.126892 17.227751 
363.119904 22.144159 
365.151703 25.80929 
365.167023 29.52655 
366.141449 42.460079 
367.166718 80.059273 
367.216095 20.85494 
368.144745 14.24463 
368.201202 13.6746 
370.172241 13.45748 
371.198975 26.096769 
374.168243 21.329 
376.145996 17.93712 
378.172852 28.056459 
379.163696 17.192419 
379.184906 18.16906 
380.198975 27.531481 
381.180817 33.072811 
381.197296 16.362539 
382.185669 51.211861 
388.44873 27.59495 
391.144196 23.02743 
393.187469 47.861931 
393.350647 14.73944 
394.195984 45.428539 
395.196991 66.131554 
395.453369 16.836109 
396.221985 57.230789 
397.209778 18.91227 
406.184875 36.165531 
406.209015 22.91975 
407.188171 45.821789 
407.2005 59.32827 
408.110107 13.58151 
408.205994 105.118896 
408.229492 30.80628 
408.300659 13.88103 
409.203766 33.19696 
409.249176 13.87183 
409.469177 15.07456 
410.223969 199.197296 
410.280792 23.959311 
410.990356 14.00444 
411.223785 83.617889 
412.219452 33.386051 
419.215851 15.35393 
420.209778 50.671879 
421.216064 20.858391 
422.222809 238.638504 
422.398712 14.3374 
422.861755 13.74074 
423.210602 78.85746 
423.230835 96.885933 
423.731537 22.130989 
423.781433 15.55132 
424.237305 5999.684082 
424.342438 15.0303 
424.372467 150.658905 
424.412567 105.4888 
424.478424 183.390106 
424.533142 44.62561 
424.588989 85.930099 
424.622223 29.751051 
424.657867 35.879761 
424.716553 65.389587 
424.771362 59.361149 
424.799805 27.20056 
424.835846 46.864819 
424.909363 50.049999 
424.953644 33.991268 
424.974121 60.756321 
425.037476 34.61977 
425.069916 32.866138 
425.119232 30.54298 
425.241364 4793.333984 
425.308594 26.75136 
425.420532 278.992706 
425.479065 92.557213 
425.505432 58.953369 
425.533569 49.546669 
425.594238 36.149971 
425.637817 86.936684 
425.660187 30.35985 
425.716919 36.911079 
425.747406 23.679171 
425.808685 93.887253 
425.908478 30.685579 
425.94812 58.344669 
425.967285 35.194962 
426.048584 32.447201 
426.095673 56.388519 
426.242462 666.405273 
426.357666 78.743233 
426.425476 29.63957 
426.479279 54.5919 
426.571045 19.10778 
426.597839 21.32202 
426.632904 23.521061 
426.676361 32.425041 
426.727173 16.55459 
426.759277 26.32769 
426.83548 17.984131 
426.857605 16.39015 
426.890594 23.030701 
426.935516 13.45663 
427.004883 18.70833 
427.054565 14.90047 
427.281891 34.577702 
427.343048 20.860081 
427.409302 14.28907 
427.478912 22.504339 
427.526855 17.32918 
427.609558 14.70081 
427.716095 38.11771 
427.78656 14.34874 
427.821442 18.760611 
427.871979 23.89555 
428.443695 16.500589 
428.544891 14.00669 
428.673584 18.388149 
428.770477 15.84637 
428.861145 13.90811 
429.046844 19.11858 
429.554688 23.204729 
429.74115 14.36325 
429.967896 13.39671 
432.248779 13.75562 
432.878693 13.46001 
433.313782 15.20224 
434.190765 15.35834 
434.223145 35.878971 
435.214874 45.54398 
435.251312 31.00313 
435.501038 13.68322 
435.992828 15.93409 
436.237518 2267.052979 
436.393829 109.636703 
436.416779 27.96747 
436.47757 57.320671 
436.550842 41.50843 
436.587494 26.655491 
436.619049 25.93075 
436.691406 44.167049 
436.744965 30.92709 
436.789856 31.7761 
436.915314 27.065359 
437.054901 25.759911 
437.202972 15.66288 
437.242859 1763.166992 
437.363342 64.80603 
437.406281 84.618378 
437.476379 26.230551 
437.544342 33.09166 
437.586731 24.83651 
437.617218 26.151699 
437.679352 40.454769 
437.707458 21.860029 
437.798737 19.19763 
437.875366 18.65004 
437.942871 32.948719 
437.986267 14.25505 
438.021881 13.69734 
438.069153 24.272699 
438.242065 355.833588 
438.348145 44.074322 
438.440216 19.484261 
438.499115 25.7027 
438.786041 15.97756 
438.830597 14.84698 
438.999969 14.99158 
439.12796 14.23865 
439.218292 19.14007 
439.375214 18.388109 
439.578796 14.80683 
439.923065 18.79067 
440.233063 75.025238 
440.452545 13.61877 
440.736511 14.08974 
441.216339 13.9129 
442.564758 16.05872 
442.828369 14.4738 
443.297607 13.45696 
449.276398 21.364479 
449.358948 15.44089 
450.253296 24.79233 
450.302765 15.15785 
451.221832 35.827148 
454.645447 16.98344 
465.260986 117.223396 
466.249542 49.895962 
466.271362 78.415558 
466.397339 17.506001 
466.94931 16.44928 
467.278442 1011.416016 
467.404175 26.21295 
467.462158 38.32856 
467.478973 13.59868 
467.537079 18.102249 
467.753143 19.6905 
467.820038 15.18288 
467.917572 26.01516 
467.994781 17.475149 
468.281219 1187.762939 
468.467621 71.459991 
468.547607 34.352459 
468.608429 20.90946 
468.666565 40.511379 
468.746277 15.78599 
468.786774 22.499981 
468.892059 23.7008 
468.980072 16.59857 
469.026611 16.16597 
469.121246 21.647539 
469.275574 91.299179 
469.295135 125.949997 
END IONS
